min: T;
r_00_0 = 0;
r_01_0 = 0;
r_02_0 = 0;
r_03_0 = 0;
2.25 a_10_0 + 2.25 a_11_0 + 2.25 a_01_0 + 2.25 a_04_0 + 2.25 a_05_0 + 11. x_01_0 + r_01_0 x_01_0 <= r_04_0;
2.25 a_10_0 + 2.25 a_11_0 + 2.25 a_01_0 + 2.25 a_04_0 + 2.25 a_05_0 + 11. x_01_0 + r_01_0 x_01_0 <= r_05_0;
4.3 a_12_0 + 4.3 a_13_0 + 4.3 a_02_0 + 4.3 a_06_0 + 4.3 a_07_0 + 15.17 x_02_0 + r_02_0 x_02_0 <= r_06_0;
4.3 a_12_0 + 4.3 a_13_0 + 4.3 a_02_0 + 4.3 a_06_0 + 4.3 a_07_0 + 15.17 x_02_0 + r_02_0 x_02_0 <= r_07_0;
4.3 a_14_0 + 4.3 a_15_0 + 4.3 a_03_0 + 4.3 a_08_0 + 4.3 a_09_0 + 15.17 x_03_0 + r_03_0 x_03_0 <= r_08_0;
4.3 a_14_0 + 4.3 a_15_0 + 4.3 a_03_0 + 4.3 a_08_0 + 4.3 a_09_0 + 15.17 x_03_0 + r_03_0 x_03_0 <= r_09_0;
4.3 a_10_0 + 4.3 a_04_0 + 15.17 x_04_0 + r_04_0 x_04_0 <= r_10_0;
4.3 a_11_0 + 4.3 a_05_0 + 15.17 x_05_0 + r_05_0 x_05_0 <= r_11_0;
2.25 a_12_0 + 2.25 a_06_0 + 11. x_06_0 + r_06_0 x_06_0 <= r_12_0;
4.3 a_10_0 + 15.17 x_10_0 + r_10_0 x_10_0 <= r_12_0;
4.3 a_13_0 + 4.3 a_07_0 + 15.17 x_07_0 + r_07_0 x_07_0 <= r_13_0;
4.3 a_14_0 + 4.3 a_08_0 + 15.17 x_08_0 + r_08_0 x_08_0 <= r_14_0;
2.25 a_13_0 + 11. x_13_0 + r_13_0 x_13_0 <= r_14_0;
2.25 a_15_0 + 2.25 a_09_0 + 11. x_09_0 + r_09_0 x_09_0 <= r_15_0;
4.3 a_11_0 + 15.17 x_11_0 + r_11_0 x_11_0 <= r_15_0;
r_00_0 x_00_0 <= t_00_0;
2.25 a_10_0 + 2.25 a_11_0 + 2.25 a_01_0 + 2.25 a_04_0 + 2.25 a_05_0 + 11. x_01_0 + r_01_0 x_01_0 <= t_01_0;
4.3 a_12_0 + 4.3 a_13_0 + 4.3 a_02_0 + 4.3 a_06_0 + 4.3 a_07_0 + 15.17 x_02_0 + r_02_0 x_02_0 <= t_02_0;
4.3 a_14_0 + 4.3 a_15_0 + 4.3 a_03_0 + 4.3 a_08_0 + 4.3 a_09_0 + 15.17 x_03_0 + r_03_0 x_03_0 <= t_03_0;
4.3 a_10_0 + 4.3 a_04_0 + 15.17 x_04_0 + r_04_0 x_04_0 <= t_04_0;
4.3 a_11_0 + 4.3 a_05_0 + 15.17 x_05_0 + r_05_0 x_05_0 <= t_06_0;
2.25 a_12_0 + 2.25 a_06_0 + 11. x_06_0 + r_06_0 x_06_0 <= t_04_0;
4.3 a_13_0 + 4.3 a_07_0 + 15.17 x_07_0 + r_07_0 x_07_0 <= t_05_0;
4.3 a_14_0 + 4.3 a_08_0 + 15.17 x_08_0 + r_08_0 x_08_0 <= t_05_0;
2.25 a_15_0 + 2.25 a_09_0 + 11. x_09_0 + r_09_0 x_09_0 <= t_06_0;
4.3 a_10_0 + 15.17 x_10_0 + r_10_0 x_10_0 <= t_07_0;
4.3 a_11_0 + 15.17 x_11_0 + r_11_0 x_11_0 <= t_07_0;
4.3 a_12_0 + 15.17 x_12_0 + r_12_0 x_12_0 <= t_07_0;
2.25 a_13_0 + 11. x_13_0 + r_13_0 x_13_0 <= t_07_0;
2.25 a_14_0 + 11. x_14_0 + r_14_0 x_14_0 <= t_07_0;
4.3 a_15_0 + 15.17 x_15_0 + r_15_0 x_15_0 <= t_07_0;
68.52 a_00_0 + t_00_0 <= T;
57.5 a_01_0 + t_01_0 <= T;
68.52 a_02_0 + t_02_0 <= T;
68.52 a_03_0 + t_03_0 <= T;
57.5 a_04_0 + 57.5 a_06_0 + t_04_0 <= T;
68.52 a_07_0 + 68.52 a_08_0 + t_05_0 <= T;
57.5 a_05_0 + 57.5 a_09_0 + t_06_0 <= T;
57.5 a_10_0 + 57.5 a_11_0 + 57.5 a_12_0 + 57.5 a_13_0 + 57.5 a_14_0 + 57.5 a_15_0 + t_07_0 <= T;
a_00_0 <= 640000 x_00_0;
a_10_0 + a_11_0 + a_01_0 + a_04_0 + a_05_0 <= 640000 x_01_0;
a_12_0 + a_13_0 + a_02_0 + a_06_0 + a_07_0 <= 640000 x_02_0;
a_14_0 + a_15_0 + a_03_0 + a_08_0 + a_09_0 <= 640000 x_03_0;
a_10_0 + a_04_0 <= 640000 x_04_0;
a_11_0 + a_05_0 <= 640000 x_05_0;
a_12_0 + a_06_0 <= 640000 x_06_0;
a_13_0 + a_07_0 <= 640000 x_07_0;
a_14_0 + a_08_0 <= 640000 x_08_0;
a_15_0 + a_09_0 <= 640000 x_09_0;
a_10_0 <= 640000 x_10_0;
a_11_0 <= 640000 x_11_0;
a_12_0 <= 640000 x_12_0;
a_13_0 <= 640000 x_13_0;
a_14_0 <= 640000 x_14_0;
a_15_0 <= 640000 x_15_0;
a_10_0 + a_11_0 + a_12_0 + a_13_0 + a_14_0 + a_15_0 + a_00_0 + a_01_0 + a_02_0 + a_03_0 + a_04_0 + a_05_0 + a_06_0 + a_07_0 + a_08_0 +
   a_09_0 = 640000;
r_00_0 = rk_00_0;
2.25 a_10_0 + 2.25 a_11_0 + 2.25 a_01_0 + 2.25 a_04_0 + 2.25 a_05_0 + r_01_0 + 11. x_01_0 = rk_01_0;
4.3 a_12_0 + 4.3 a_13_0 + 4.3 a_02_0 + 4.3 a_06_0 + 4.3 a_07_0 + r_02_0 + 15.17 x_02_0 = rk_02_0;
4.3 a_14_0 + 4.3 a_15_0 + 4.3 a_03_0 + 4.3 a_08_0 + 4.3 a_09_0 + r_03_0 + 15.17 x_03_0 = rk_03_0;
4.3 a_10_0 + 4.3 a_04_0 + r_04_0 + 15.17 x_04_0 = rk_04_0;
4.3 a_11_0 + 4.3 a_05_0 + r_05_0 + 15.17 x_05_0 = rk_05_0;
2.25 a_12_0 + 2.25 a_06_0 + r_06_0 + 11. x_06_0 = rk_06_0;
4.3 a_13_0 + 4.3 a_07_0 + r_07_0 + 15.17 x_07_0 = rk_07_0;
4.3 a_14_0 + 4.3 a_08_0 + r_08_0 + 15.17 x_08_0 = rk_08_0;
2.25 a_15_0 + 2.25 a_09_0 + r_09_0 + 11. x_09_0 = rk_09_0;
4.3 a_10_0 + r_10_0 + 15.17 x_10_0 = rk_10_0;
4.3 a_11_0 + r_11_0 + 15.17 x_11_0 = rk_11_0;
4.3 a_12_0 + r_12_0 + 15.17 x_12_0 = rk_12_0;
2.25 a_13_0 + r_13_0 + 11. x_13_0 = rk_13_0;
2.25 a_14_0 + r_14_0 + 11. x_14_0 = rk_14_0;
4.3 a_15_0 + r_15_0 + 15.17 x_15_0 = rk_15_0;
68.52 a_00_0 + t_00_0 = tk_00_0;
57.5 a_01_0 + t_01_0 = tk_01_0;
68.52 a_02_0 + t_02_0 = tk_02_0;
68.52 a_03_0 + t_03_0 = tk_03_0;
57.5 a_04_0 + 57.5 a_06_0 + t_04_0 = tk_04_0;
68.52 a_07_0 + 68.52 a_08_0 + t_05_0 = tk_05_0;
57.5 a_05_0 + 57.5 a_09_0 + t_06_0 = tk_06_0;
57.5 a_10_0 + 57.5 a_11_0 + 57.5 a_12_0 + 57.5 a_13_0 + 57.5 a_14_0 + 57.5 a_15_0 + t_07_0 = tk_07_0;
Sa_00_0 = a_00_0;
Sa_01_0 = a_10_0 + a_11_0 + a_01_0 + a_04_0 + a_05_0;
Sa_02_0 = a_12_0 + a_13_0 + a_02_0 + a_06_0 + a_07_0;
Sa_03_0 = a_14_0 + a_15_0 + a_03_0 + a_08_0 + a_09_0;
Sa_04_0 = a_10_0 + a_04_0;
Sa_05_0 = a_11_0 + a_05_0;
Sa_06_0 = a_12_0 + a_06_0;
Sa_07_0 = a_13_0 + a_07_0;
Sa_08_0 = a_14_0 + a_08_0;
Sa_09_0 = a_15_0 + a_09_0;
Sa_10_0 = a_10_0;
Sa_11_0 = a_11_0;
Sa_12_0 = a_12_0;
Sa_13_0 = a_13_0;
Sa_14_0 = a_14_0;
Sa_15_0 = a_15_0;
m = 1;
pv_0 = 0;
pv_1 = 0;
pv_2 = 0;
pv_3 = 0;
pv_4 = 1;
pv_5 = 1;
pv_6 = 2;
pv_7 = 2;
pv_8 = 3;
pv_9 = 3;
pv_10 = 4;
pv_11 = 5;
pv_12 = 6;
pv_13 = 7;
pv_14 = 8;
pv_15 = 9;
pc_0 = 0;
pc_1 = 1;
pc_2 = 2;
pc_3 = 3;
pc_4 = 4;
pc_5 = 6;
pc_6 = 4;
pc_7 = 5;
pc_8 = 5;
pc_9 = 6;
pc_10 = 7;
pc_11 = 7;
pc_12 = 7;
pc_13 = 7;
pc_14 = 7;
pc_15 = 7;
int x_00_0, x_01_0, x_02_0, x_03_0, x_04_0, x_05_0, x_06_0, x_07_0, x_08_0, x_09_0, x_10_0, x_11_0, x_12_0, x_13_0, x_14_0, x_15_0;
int a_00_0, a_01_0, a_02_0, a_03_0, a_04_0, a_05_0, a_06_0, a_07_0, a_08_0, a_09_0, a_10_0, a_11_0, a_12_0, a_13_0, a_14_0, a_15_0;